h 1 2 0
1 -3 0
1 4 -5 0
1 3 -6 0
1 -7 6 0
1 -8 9 0
1 -7 -10 0
1 -11 0
1 5 0
1 12 0
1 -10 13 0
1 12 -11 0
1 -10 12 0
1 -14 0
1 7 -6 0
1 7 11 0
1 -14 6 0
1 10 0
1 12 -9 0
1 8 11 0
1 -10 -6 0
1 -5 12 0
1 -10 9 0
1 7 -12 0
1 6 -10 0
1 -7 10 0
1 5 -9 0
1 -14 -6 0
1 -6 12 0
1 -10 -11 0
1 -10 6 0
1 -10 -7 0
1 -10 14 0
1 5 7 0
1 -6 -13 0
1 6 11 0
1 -6 0
1 12 7 0
1 7 0
1 -7 -5 0
1 8 0
1 9 0
1 -6 10 0
1 12 10 0
h 12 -15 0
1 -11 -6 0
1 -5 16 0
1 -12 -6 0
1 5 12 0
1 12 5 0
1 11 8 0
1 -5 -12 0
1 -17 0
1 5 6 0
1 11 12 0
1 -9 -12 0
1 -12 -11 0
1 -11 6 0
1 12 -5 0
1 -11 10 0
1 16 0
1 5 -3 0
1 -7 4 0
1 -4 0
1 13 9 0
1 -6 -5 0
1 7 -10 0
1 -18 0
1 19 -20 0
1 -21 -20 0
1 -22 19 0
1 21 -11 0
1 22 7 0
1 22 -20 0
1 -20 22 0
1 23 0
1 24 -25 0
1 25 0
1 20 0
1 -25 -21 0
1 -23 22 0
1 22 20 0
1 20 -19 0
1 9 20 0
1 22 21 0
1 -20 -26 0
1 -24 -11 0
1 21 24 0
1 6 22 0
1 -22 25 0
1 -20 24 0
1 24 -6 0
1 -11 27 0
1 -7 22 0
1 7 6 0
1 -12 -22 0
1 20 -21 0
1 20 -22 0
1 24 -28 0
1 21 -12 0
1 -18 -21 0
1 -20 -24 0
1 -12 -28 0
1 -1 0
1 10 -20 0
1 -5 6 0
1 26 0
1 -22 0
1 -29 -11 0
1 -22 -24 0
1 -25 -22 0
1 -21 -11 0
1 15 0
1 24 28 0
1 10 -24 0
1 -20 -10 0
1 -22 -12 0
1 30 0
1 -7 24 0
1 20 22 0
1 -21 -2 0
1 -5 -4 0
1 -10 -5 0
1 -31 0
1 6 -24 0
1 -22 -20 0
1 25 -20 0
1 -32 26 0
1 20 -29 0
1 24 -30 0
1 24 0
1 10 -25 0
1 33 0
1 28 -25 0
1 11 -26 0
1 -8 20 0
1 -12 21 0
1 22 -21 0
1 22 24 0
1 22 -10 0
1 -24 -22 0
1 25 -22 0
1 22 10 0
1 -25 -5 0
1 -26 11 0
1 22 27 0
1 -6 -20 0
1 12 -7 0
1 31 22 0
1 21 22 0
1 17 -10 0
1 -19 0
1 -24 22 0
1 30 -25 0
1 12 22 0
1 34 0
1 -20 -25 0
1 21 25 0
1 -25 21 0
1 -28 0
1 -21 20 0
1 35 0
1 7 25 0
1 -21 -24 0
1 -22 10 0
1 -22 -21 0
1 21 -22 0
1 -34 -21 0
1 7 -20 0
1 11 -34 0
1 24 -22 0
1 27 21 0
1 -36 0
1 -25 22 0
1 -37 25 0
1 26 6 0
1 5 -11 0
1 -34 -24 0
1 5 -21 0
1 -17 -20 0
1 21 -7 0
1 26 24 0
1 -10 -24 0
1 22 15 0
1 21 5 0
1 -27 7 0
1 10 -21 0
1 25 -6 0
1 25 7 0
1 -37 12 0
1 31 -21 0
1 20 -24 0
1 29 0
1 -24 25 0
1 -33 -20 0
1 -21 -22 0
1 20 24 0
1 24 22 0
1 -37 24 0
1 -28 20 0
1 -38 0
1 -6 -25 0
1 -31 5 0
1 -13 0
1 22 34 0
1 21 -38 0
1 -32 -22 0
1 20 38 0
1 32 0
1 -21 22 0
1 25 -7 0
1 24 -2 0
1 12 21 0
1 37 -22 0
1 29 10 0
1 -30 -38 0
1 23 24 0
1 -27 0
1 -21 11 0
1 -7 -22 0
1 -20 -22 0
1 -37 0
1 10 11 0
1 -23 25 0
1 22 25 0
1 24 20 0
1 23 7 0
1 -24 20 0
1 -25 24 0
1 25 34 0
1 25 -35 0
1 -21 -25 0
1 18 -20 0
1 21 0
1 -25 21 22 0
1 20 21 0
1 -12 24 0
1 -25 20 0
1 -20 25 0
1 20 26 0
1 38 30 0
1 -38 12 0
1 -6 25 0
1 -5 21 0
1 5 -10 0
1 25 -21 0
1 -25 -24 0
1 25 21 0
1 -24 -21 0
h 39 7 0
1 -39 0
h 40 -13 0
1 -40 0
h 41 -42 0
1 -41 0
h 43 44 0
1 -43 0
h 45 26 0
1 -45 0
h 46 12 0
1 -46 0
h 47 -28 0
1 -47 0
h 48 36 0
2 -48 0
h 5 9 0
h 49 7 0
1 -49 0
h 50 11 -16 0
1 -50 0
